tsp_instances/TSP50/instance39.tsp
NODE_COORD_SECTION
0 38 96
1 86 92
2 80 61
3 185 69
4 19 126
5 57 176
6 156 13
7 161 64
8 154 58
9 162 35
10 149 179
11 143 66
12 2 18
13 190 154
14 115 78
15 39 163
16 114 52
17 86 110
18 59 138
19 21 8
20 118 176
21 31 124
22 51 26
23 5 177
24 75 168
25 86 32
26 112 140
27 31 86
28 112 88
29 135 51
30 177 76
31 77 53
32 139 120
33 98 151
34 108 187
35 118 58
36 133 36
37 73 182
38 196 133
39 97 138
40 27 68
41 152 112
42 67 151
43 86 30
44 113 78
45 108 194
46 31 165
47 145 100
48 151 4
49 7 150
