tsp_instances/TSP50/instance39.opt.tour
TOUR_SECTION
1
22
5
50
24
47
16
6
38
25
43
19
40
27
34
35
46
21
11
14
39
42
33
48
12
9
8
31
4
10
7
49
37
30
17
36
15
45
29
18
2
3
32
26
44
23
20
13
41
28
-1